words_train/words_89_SAT.qaiger
aag 84 16 0 1 68
32
10
14
8
22
4
20
26
6
30
12
2
18
16
28
24
169
34 4 2
36 35 7
38 36 9
40 38 11
42 40 13
44 42 15
46 33 31
48 46 29
50 48 27
52 50 25
54 52 23
56 54 21
58 19 17
60 18 16
62 61 59
64 63 56
66 62 57
68 67 65
70 69 44
72 68 45
74 73 71
76 55 20
78 77 57
80 43 14
82 81 45
84 83 79
86 82 78
88 53 22
90 89 55
92 41 12
94 93 43
96 95 91
98 94 90
100 51 24
102 101 53
104 39 10
106 105 41
108 107 103
110 33 3
112 111 30
114 113 5
116 47 28
118 117 37
120 119 35
122 120 115
124 37 8
126 125 39
128 127 26
130 129 123
132 34 6
134 133 37
136 135 28
138 137 49
140 138 130
142 106 102
144 49 26
146 145 51
148 146 126
150 149 143
152 150 141
154 153 109
156 155 99
158 157 97
160 159 87
162 161 85
164 163 74
166 162 75
168 167 165
i0 1 x[7]
i1 2 z[4]
i2 2 z[6]
i3 2 z[3]
i4 1 x[2]
i5 2 z[1]
i6 1 x[1]
i7 1 x[4]
i8 2 z[2]
i9 1 x[6]
i10 2 z[5]
i11 2 z[0]
i12 1 x[0]
i13 2 z[7]
i14 1 x[5]
i15 1 x[3]
o0 bv[0]
c
simplified
  <
    add
      add
        1
        unary minus
          2 z
      1
    reverse
      1 x
