words_train/words_89_SAT.qaiger.qdimacs
p cnf 84 205
a 9 10 11 12 13 14 15 16 0
e 1 2 3 4 5 6 7 8 17 18 19 20 21 22 23 24 25 26 27 28 29 30 31 32 33 34 35 36 37 38 39 40 41 42 43 44 45 46 47 48 49 50 51 52 53 54 55 56 57 58 59 60 61 62 63 64 65 66 67 68 69 70 71 72 73 74 75 76 77 78 79 80 81 82 83 84 0
-2 -1 17 0
2 -17 0
1 -17 0
17 3 18 0
-17 -18 0
-3 -18 0
-18 4 19 0
18 -19 0
-4 -19 0
-19 5 20 0
19 -20 0
-5 -20 0
-20 6 21 0
20 -21 0
-6 -21 0
-21 7 22 0
21 -22 0
-7 -22 0
16 15 23 0
-16 -23 0
-15 -23 0
-23 14 24 0
23 -24 0
-14 -24 0
-24 13 25 0
24 -25 0
-13 -25 0
-25 12 26 0
25 -26 0
-12 -26 0
-26 11 27 0
26 -27 0
-11 -27 0
-27 10 28 0
27 -28 0
-10 -28 0
9 8 29 0
-9 -29 0
-8 -29 0
-9 -8 30 0
9 -30 0
8 -30 0
30 29 31 0
-30 -31 0
-29 -31 0
31 -28 32 0
-31 -32 0
28 -32 0
-31 28 33 0
31 -33 0
-28 -33 0
33 32 34 0
-33 -34 0
-32 -34 0
34 -22 35 0
-34 -35 0
22 -35 0
-34 22 36 0
34 -36 0
-22 -36 0
36 35 37 0
-36 -37 0
-35 -37 0
27 -10 38 0
-27 -38 0
10 -38 0
38 28 39 0
-38 -39 0
-28 -39 0
21 -7 40 0
-21 -40 0
7 -40 0
40 22 41 0
-40 -41 0
-22 -41 0
41 39 42 0
-41 -42 0
-39 -42 0
-41 -39 43 0
41 -43 0
39 -43 0
26 -11 44 0
-26 -44 0
11 -44 0
44 27 45 0
-44 -45 0
-27 -45 0
20 -6 46 0
-20 -46 0
6 -46 0
46 21 47 0
-46 -47 0
-21 -47 0
47 45 48 0
-47 -48 0
-45 -48 0
-47 -45 49 0
47 -49 0
45 -49 0
25 -12 50 0
-25 -50 0
12 -50 0
50 26 51 0
-50 -51 0
-26 -51 0
19 -5 52 0
-19 -52 0
5 -52 0
52 20 53 0
-52 -53 0
-20 -53 0
53 51 54 0
-53 -54 0
-51 -54 0
16 1 55 0
-16 -55 0
-1 -55 0
55 -15 56 0
-55 -56 0
15 -56 0
56 2 57 0
-56 -57 0
-2 -57 0
23 -14 58 0
-23 -58 0
14 -58 0
58 18 59 0
-58 -59 0
-18 -59 0
59 17 60 0
-59 -60 0
-17 -60 0
-60 57 61 0
60 -61 0
-57 -61 0
18 -4 62 0
-18 -62 0
4 -62 0
62 19 63 0
-62 -63 0
-19 -63 0
63 -13 64 0
-63 -64 0
13 -64 0
64 61 65 0
-64 -65 0
-61 -65 0
-17 -3 66 0
17 -66 0
3 -66 0
66 18 67 0
-66 -67 0
-18 -67 0
67 -14 68 0
-67 -68 0
14 -68 0
68 24 69 0
-68 -69 0
-24 -69 0
-69 -65 70 0
69 -70 0
65 -70 0
-53 -51 71 0
53 -71 0
51 -71 0
24 -13 72 0
-24 -72 0
13 -72 0
72 25 73 0
-72 -73 0
-25 -73 0
-73 -63 74 0
73 -74 0
63 -74 0
74 71 75 0
-74 -75 0
-71 -75 0
-75 70 76 0
75 -76 0
-70 -76 0
76 54 77 0
-76 -77 0
-54 -77 0
77 49 78 0
-77 -78 0
-49 -78 0
78 48 79 0
-78 -79 0
-48 -79 0
79 43 80 0
-79 -80 0
-43 -80 0
80 42 81 0
-80 -81 0
-42 -81 0
81 -37 82 0
-81 -82 0
37 -82 0
-81 37 83 0
81 -83 0
-37 -83 0
83 82 84 0
-83 -84 0
-82 -84 0
-84 0
